
  20    0


   0  13 2 3 4 5 6 8 9 14 15 16 17 18 19 
   4   3 13 12 11 
   9   2 11 7 
   8   2 13 10 
   8   2 12 10 
   3   2 11 10 
   2   1 10 
  10   1 10 
   7   1 10 
   4   1 20
   8   1 20
   8   1 20
   3   1 20
   6   1 20
   9   1 20
   9   1 20
   1   1 20
   4   1 20
   8   1 20
   0   0 
